35
raw_data/mm-rcpsp/MMLIB50/J507_5.mm
Time limit set to 60 seconds
Running CP solver
/home/omastto1/General-Optimization-Solver/src/solvers/mmrcpsp.py:42(stream:276:6): Warning: Cumulative expression 'pulse': height is zero, expression is zero everywhere.
                                                                                               VarCumulAtom_419 = pulse(task_0_mode_0, 0)
/home/omastto1/General-Optimization-Solver/src/solvers/mmrcpsp.py:42(stream:276:3914): Warning: Cumulative expression 'pulse': height is zero, expression is zero everywhere.
                                                                                                  VarCumulAtom_570 = pulse(task_51_mode_0, 0)
/home/omastto1/General-Optimization-Solver/src/solvers/mmrcpsp.py:42(stream:277:6): Warning: Cumulative expression 'pulse': height is zero, expression is zero everywhere.
                                                                                               VarCumulAtom_574 = pulse(task_0_mode_0, 0)
/home/omastto1/General-Optimization-Solver/src/solvers/mmrcpsp.py:42(stream:277:3909): Warning: Cumulative expression 'pulse': height is zero, expression is zero everywhere.
                                                                                                  VarCumulAtom_725 = pulse(task_51_mode_0, 0)
 ! --------------------------------------------------- CP Optimizer 20.1.0.0 --
 ! Minimization problem - 205 variables, 314 constraints
 ! TimeLimit            = 60
 ! Workers              = 14
 ! LogVerbosity         = Terse
 ! Initial process time : 0.01s (0.01s extraction + 0.00s propagation)
 !  . Log search space  : 515.8 (before), 515.8 (after)
 !  . Memory usage      : 1.3 MB (before), 1.3 MB (after)
 ! Using parallel search with 14 workers.
 ! ----------------------------------------------------------------------------
 !          Best Branches  Non-fixed    W       Branch decision
                        0        205                 -
 + New bound is 13
 ! Using iterative diving.
 ! Using temporal relaxation.
                        0        205    1            -
 + New bound is 16
 *            49      861  0.79s        1      (gap is 67.35%)
 *            48      834  0.79s        6      (gap is 66.67%)
 *            44     2148  1.46s        5      (gap is 63.64%)
 *            43    16952  6.49s        5      (gap is 62.79%)
 *            42    19858  7.21s        6      (gap is 61.90%)
 ! Using failure-directed search.
 *            41    42884  13.78s       2      (gap is 60.98%)
              41    40324        119    1   F    25 >= cost
 + New bound is 17 (gap is 58.54%)
 ! ----------------------------------------------------------------------------
 ! Search terminated by limit, 6 solutions found.
 ! Best objective         : 41 (gap is 58.54%)
 ! Best bound             : 17
 ! ----------------------------------------------------------------------------
 ! Number of branches     : 5284092
 ! Number of fails        : 909718
 ! Total memory usage     : 20.2 MB (20.0 MB CP Optimizer + 0.2 MB Concert)
 ! Time spent in solve    : 60.04s (60.03s engine + 0.01s extraction)
 ! Search speed (br. / s) : 88038.9
 ! ----------------------------------------------------------------------------
task_0: (start=0, end=0, size=0, length=0)
Task 0 is scheduled in mode 0 from 0 to 0
task_1: (start=6, end=12, size=6, length=6)
Task 1 is scheduled in mode 2 from 6 to 12
task_2: (start=3, end=12, size=9, length=9)
Task 2 is scheduled in mode 2 from 3 to 12
task_3: (start=0, end=2, size=2, length=2)
Task 3 is scheduled in mode 0 from 0 to 2
task_4: (start=4, end=14, size=10, length=10)
Task 4 is scheduled in mode 2 from 4 to 14
task_5: (start=0, end=1, size=1, length=1)
Task 5 is scheduled in mode 0 from 0 to 1
task_6: (start=2, end=7, size=5, length=5)
Task 6 is scheduled in mode 2 from 2 to 7
task_7: (start=1, end=7, size=6, length=6)
Task 7 is scheduled in mode 1 from 1 to 7
task_8: (start=0, end=2, size=2, length=2)
Task 8 is scheduled in mode 0 from 0 to 2
task_9: (start=0, end=1, size=1, length=1)
Task 9 is scheduled in mode 0 from 0 to 1
task_10: (start=3, end=12, size=9, length=9)
Task 10 is scheduled in mode 2 from 3 to 12
task_11: (start=1, end=6, size=5, length=5)
Task 11 is scheduled in mode 2 from 1 to 6
task_12: (start=1, end=4, size=3, length=3)
Task 12 is scheduled in mode 1 from 1 to 4
task_13: (start=0, end=3, size=3, length=3)
Task 13 is scheduled in mode 1 from 0 to 3
task_14: (start=12, end=21, size=9, length=9)
Task 14 is scheduled in mode 2 from 12 to 21
task_15: (start=2, end=6, size=4, length=4)
Task 15 is scheduled in mode 0 from 2 to 6
task_16: (start=7, end=11, size=4, length=4)
Task 16 is scheduled in mode 1 from 7 to 11
task_17: (start=15, end=25, size=10, length=10)
Task 17 is scheduled in mode 2 from 15 to 25
task_18: (start=14, end=15, size=1, length=1)
Task 18 is scheduled in mode 0 from 14 to 15
task_19: (start=21, end=31, size=10, length=10)
Task 19 is scheduled in mode 2 from 21 to 31
task_20: (start=14, end=22, size=8, length=8)
Task 20 is scheduled in mode 2 from 14 to 22
task_21: (start=21, end=30, size=9, length=9)
Task 21 is scheduled in mode 2 from 21 to 30
task_22: (start=21, end=23, size=2, length=2)
Task 22 is scheduled in mode 0 from 21 to 23
task_23: (start=6, end=14, size=8, length=8)
Task 23 is scheduled in mode 2 from 6 to 14
task_24: (start=23, end=29, size=6, length=6)
Task 24 is scheduled in mode 2 from 23 to 29
task_25: (start=20, end=26, size=6, length=6)
Task 25 is scheduled in mode 2 from 20 to 26
task_26: (start=11, end=21, size=10, length=10)
Task 26 is scheduled in mode 2 from 11 to 21
task_27: (start=31, end=34, size=3, length=3)
Task 27 is scheduled in mode 1 from 31 to 34
task_28: (start=14, end=24, size=10, length=10)
Task 28 is scheduled in mode 2 from 14 to 24
task_29: (start=12, end=20, size=8, length=8)
Task 29 is scheduled in mode 2 from 12 to 20
task_30: (start=14, end=22, size=8, length=8)
Task 30 is scheduled in mode 2 from 14 to 22
task_31: (start=32, end=39, size=7, length=7)
Task 31 is scheduled in mode 1 from 32 to 39
task_32: (start=37, end=41, size=4, length=4)
Task 32 is scheduled in mode 1 from 37 to 41
task_33: (start=31, end=37, size=6, length=6)
Task 33 is scheduled in mode 2 from 31 to 37
task_34: (start=37, end=41, size=4, length=4)
Task 34 is scheduled in mode 2 from 37 to 41
task_35: (start=34, end=41, size=7, length=7)
Task 35 is scheduled in mode 1 from 34 to 41
task_36: (start=33, end=34, size=1, length=1)
Task 36 is scheduled in mode 0 from 33 to 34
task_37: (start=34, end=41, size=7, length=7)
Task 37 is scheduled in mode 2 from 34 to 41
task_38: (start=28, end=33, size=5, length=5)
Task 38 is scheduled in mode 2 from 28 to 33
task_39: (start=40, end=41, size=1, length=1)
Task 39 is scheduled in mode 0 from 40 to 41
task_40: (start=32, end=37, size=5, length=5)
Task 40 is scheduled in mode 2 from 32 to 37
task_41: (start=34, end=39, size=5, length=5)
Task 41 is scheduled in mode 1 from 34 to 39
task_42: (start=29, end=31, size=2, length=2)
Task 42 is scheduled in mode 1 from 29 to 31
task_43: (start=25, end=34, size=9, length=9)
Task 43 is scheduled in mode 2 from 25 to 34
task_44: (start=26, end=32, size=6, length=6)
Task 44 is scheduled in mode 2 from 26 to 32
task_45: (start=22, end=31, size=9, length=9)
Task 45 is scheduled in mode 2 from 22 to 31
task_46: (start=23, end=28, size=5, length=5)
Task 46 is scheduled in mode 2 from 23 to 28
task_47: (start=39, end=40, size=1, length=1)
Task 47 is scheduled in mode 1 from 39 to 40
task_48: (start=24, end=31, size=7, length=7)
Task 48 is scheduled in mode 2 from 24 to 31
task_49: (start=15, end=23, size=8, length=8)
Task 49 is scheduled in mode 2 from 15 to 23
task_50: (start=30, end=32, size=2, length=2)
Task 50 is scheduled in mode 1 from 30 to 32
task_51: (start=41, end=41, size=0, length=0)
Task 51 is scheduled in mode 0 from 41 to 41
Feasible solution found
Objective value: 41
Solution is 57.7 % worse than the lower bound.
